
  12    4
  10   10   10   10

   0   0   0   0   0   4 2 3 7 8 
   7  10  10  10  10   2 6 5 
   5  10  10  10  10   1 4 
  10  10  10  10  10   2 11 9 
   4  10  10  10  10   2 11 9 
   9  10  10  10  10   1 9 
   7  10  10  10  10   1 9 
   8  10  10  10  10   1 9 
   2  10  10  10  10   1 10 
   7  10  10  10  10   1 12
   7  10  10  10  10   1 12
   0   0   0   0   0   0 
